Solver command line: ['C:\\Program Files\\IBM\\ILOG\\CPLEX_Studio221\\cplex\\bin\\x64_win64\\cplex.exe']


Welcome to IBM(R) ILOG(R) CPLEX(R) Interactive Optimizer 22.1.0.0
  with Simplex, Mixed Integer & Barrier Optimizers
5725-A06 5725-A29 5724-Y48 5724-Y49 5724-Y54 5724-Y55 5655-Y21
Copyright IBM Corp. 1988, 2022.  All Rights Reserved.

Type 'help' for a list of available commands.
Type 'help' followed by a command name for more
information on commands.

CPLEX> Logfile 'cplex.log' closed.
Logfile 'data\30_bus\2.5_trips_per_bus\3_0.6_3\step2.log' open.
CPLEX> New value for mixed integer solutions limit: 1
CPLEX> New value for time limit in seconds: 500
CPLEX> New value for default parallel thread count: 1
CPLEX> Problem 'C:\Users\Mathis\AppData\Local\Temp\tmp2f6ngcyz.pyomo.lp' read.
Read time = 0.05 sec. (5.95 ticks)
CPLEX> Problem name         : C:\Users\Mathis\AppData\Local\Temp\tmp2f6ngcyz.pyomo.lp
Objective sense      : Minimize
Variables            :   43693  [Nneg: 10892,  Binary: 32801]
Objective nonzeros   :       1
Linear constraints   :   44429  [Less: 42898,  Greater: 255,  Equal: 1276]
  Nonzeros           :  227267
  RHS nonzeros       :   34273

Variables            : Min LB: 0.000000         Max UB: 1.000000       
Objective nonzeros   : Min   : 2.018551e+07     Max   : 2.018551e+07   
Linear constraints   :
  Nonzeros           : Min   : 0.2192982        Max   : 10000.00       
  RHS nonzeros       : Min   : 1.000000         Max   : 10000.00       
CPLEX> Version identifier: 22.1.0.0 | 2022-03-09 | 1a383f8ce
CPXPARAM_Threads                                 1
CPXPARAM_MIP_Limits_Solutions                    1
CPXPARAM_TimeLimit                               500
Tried aggregator 2 times.
MIP Presolve eliminated 34407 rows and 21780 columns.
MIP Presolve modified 38882 coefficients.
Aggregator did 360 substitutions.
Reduced MIP has 9662 rows, 21553 columns, and 75574 nonzeros.
Reduced MIP has 20948 binaries, 0 generals, 0 SOSs, and 0 indicators.
Presolve time = 0.09 sec. (118.41 ticks)
Probing time = 0.02 sec. (7.73 ticks)
Tried aggregator 1 time.
Detecting symmetries...
Reduced MIP has 9662 rows, 21553 columns, and 75574 nonzeros.
Reduced MIP has 20948 binaries, 0 generals, 0 SOSs, and 0 indicators.
Presolve time = 0.03 sec. (48.44 ticks)
Probing time = 0.02 sec. (7.62 ticks)
Clique table members: 5634.
MIP emphasis: balance optimality and feasibility.
MIP search method: dynamic search.
Parallel mode: none, using 1 thread.
Root relaxation solution time = 0.05 sec. (81.46 ticks)

        Nodes                                         Cuts/
   Node  Left     Objective  IInf  Best Integer    Best Bound    ItCnt     Gap

      0     0   2.01855e+07   485                 2.01855e+07     1196         
      0     0   2.01855e+07   116                     Cuts: 8     1620         
      0     0   2.01855e+07   207                   Cuts: 316     2223         
      0     0   2.01855e+07    27                     Cuts: 2     2225         
*     0+    0                       2.01855e+07   2.01855e+07             0.00%
      0     0        cutoff         2.01855e+07   2.01855e+07     2225    0.00%
Elapsed time = 2.89 sec. (5495.95 ticks, tree = 0.01 MB, solutions = 1)

Clique cuts applied:  2
Implied bound cuts applied:  35
Flow cuts applied:  5
Mixed integer rounding cuts applied:  27
Multi commodity flow cuts applied:  1
Gomory fractional cuts applied:  2

Root node processing (before b&c):
  Real time             =    2.89 sec. (5497.58 ticks)
Sequential b&c:
  Real time             =    0.00 sec. (0.00 ticks)
                          ------------
Total (root+branch&cut) =    2.89 sec. (5497.58 ticks)

Solution pool: 1 solution saved.

MIP - Integer optimal solution:  Objective =  2.0185514000e+07
Solution time =    2.89 sec.  Iterations = 2225  Nodes = 0
Deterministic time = 5497.70 ticks  (1902.32 ticks/sec)

CPLEX> Incumbent solution written to file 'C:\Users\Mathis\AppData\Local\Temp\tmp2vi2p2st.cplex.sol'.
CPLEX> 
